30
0   102   101
1   103   101
2   104   104
3   104   104
4   52   51
5   54   51
6   54   54
7   51   54
8   28   27
9   26   28
10   26   26
11   26   26
12   16   14
13   16   13
14   14   16
15   16   14
16   9   8
17   8   10
18   9   7
19   10   7
20   2   3
21   1   3
22   4   2
23   3   3
24   4   4
25   1   4
26   2   4
27   4   2
28   3   3
29   1   4
200
